100	5
25	200
20
30
10
40
20
20
20
10
20
30
40
20
10
10
20
20
20
20
40
10
10
40
30
10
20
30
20
10
10
10
20
10
10
30
20
40
10
30
10
30
20
10
20
10
10
10
10
10
10
30
19
3
5
16
16
19
23
20
19
17
9
3
6
17
16
16
9
21
27
23
14
8
5
8
16
31
7
27
30
13
10
9
14
18
2
28
13
19
25
6
13
14
3
23
6
26
35
9
15
3
40	50	0	240	0	0
25	85	130	190	10	3
22	75	35	95	10	3
22	85	94	154	10	2
20	80	126	186	10	1
20	85	40	100	10	3
18	75	80	140	10	3
15	75	64	124	10	1
15	80	76	136	10	3
10	35	76	136	10	1
10	40	104	164	10	2
8	40	44	104	10	3
8	45	49	109	10	2
5	35	127	187	10	3
5	45	35	95	10	1
2	40	43	103	10	2
0	40	57	117	10	1
0	45	129	189	10	1
44	5	72	132	10	2
42	10	57	117	10	2
42	15	107	167	10	3
40	5	52	112	10	1
40	15	77	137	10	2
38	5	50	110	10	3
38	15	133	193	10	3
35	5	124	184	10	2
95	30	100	160	10	3
95	35	57	117	10	2
92	30	55	115	10	3
90	35	52	112	10	2
88	30	59	119	10	3
88	35	50	110	10	3
87	30	116	176	10	1
85	25	51	111	10	1
85	35	96	156	10	3
67	85	124	184	10	3
65	85	43	103	10	1
65	82	109	169	10	1
62	80	60	120	10	1
60	80	36	96	10	3
60	85	70	130	10	2
58	75	77	137	10	3
55	80	33	93	10	2
55	85	113	173	10	2
55	82	49	109	10	2
20	82	37	97	10	1
18	80	98	158	10	3
2	45	38	98	10	1
42	5	124	184	10	3
42	12	89	149	10	3
72	35	101	161	10	1
55	20	68	128	10	2
25	30	37	97	10	3
20	50	76	136	10	3
55	60	124	184	10	1
30	60	125	185	10	1
50	35	115	175	10	2
30	25	81	141	10	3
15	10	122	182	10	2
10	20	42	102	10	2
15	60	140	200	10	3
45	65	51	111	10	2
65	35	37	97	10	1
65	20	39	99	10	3
45	30	38	98	10	2
35	40	11	71	10	2
41	37	118	178	10	3
64	42	55	115	10	3
40	60	129	189	10	2
31	52	26	86	10	3
35	69	150	210	10	2
65	55	50	110	10	2
63	65	27	87	10	3
2	60	62	122	10	3
20	20	126	186	10	2
5	5	59	119	10	2
60	12	60	120	10	3
23	3	120	180	10	3
8	56	75	135	10	2
6	68	74	134	10	3
47	47	162	222	10	2
49	58	71	131	10	3
27	43	27	87	10	2
37	31	20	80	10	3
57	29	81	141	10	2
63	23	72	132	10	1
21	24	72	132	10	1
12	24	75	135	10	3
24	58	52	112	10	2
67	5	117	177	10	1
37	47	71	131	10	3
49	42	152	212	10	3
53	43	14	74	10	1
61	52	148	208	10	1
57	48	80	140	10	1
56	37	20	80	10	2
55	54	117	177	10	1
4	18	105	165	10	3
26	52	31	91	10	1
26	35	62	122	10	2
31	67	150	210	10	3
42	73	0	240	5	4
7	42	0	240	5	4
40	36	0	240	5	4
42	8	0	240	5	4
71	42	0	240	5	4
1	0	0	0	0	
1	0	0	0	0	
1	0	0	0	0	
0	0	0	0	0	
1	0	0	0	0	
1	0	0	0	0	
0	0	0	0	0	
1	0	0	0	0	
0	0	0	0	0	
0	1	0	0	0	
0	1	0	0	0	
0	1	0	0	0	
0	1	0	0	0	
0	0	0	0	0	
0	1	0	0	0	
0	0	0	0	0	
0	0	0	0	0	
0	0	0	1	0	
0	0	0	1	0	
0	0	0	1	0	
0	0	0	0	0	
0	0	0	1	0	
0	0	0	1	0	
0	0	0	1	0	
0	0	0	1	0	
0	0	0	0	1	
0	0	0	0	1	
0	0	0	0	1	
0	0	0	0	1	
0	0	0	0	1	
0	0	0	0	1	
0	0	0	0	0	
0	0	0	0	0	
0	0	0	0	1	
1	0	0	0	0	
0	0	0	0	0	
0	0	0	0	0	
0	0	0	0	0	
1	0	0	0	0	
1	0	0	0	0	
1	0	0	0	0	
1	0	0	0	0	
1	0	0	0	0	
1	0	0	0	0	
0	0	0	0	0	
1	0	0	0	0	
0	0	0	0	0	
0	0	0	1	0	
0	0	0	1	0	
0	0	0	0	0	
0	0	0	1	0	
0	0	1	0	0	
0	1	0	0	0	
0	0	0	0	0	
0	0	0	0	0	
0	0	1	0	0	
0	0	1	0	0	
0	0	0	1	0	
0	1	0	0	0	
0	1	0	0	0	
1	0	0	0	0	
0	0	0	0	0	
0	0	0	0	1	
0	0	1	0	0	
0	0	1	0	0	
0	0	1	0	0	
0	0	0	0	1	
1	0	0	0	0	
0	0	1	0	0	
1	0	0	0	0	
0	0	0	0	1	
1	0	0	0	0	
0	1	0	0	0	
0	0	0	1	0	
0	1	0	0	0	
0	0	0	1	0	
0	0	0	1	0	
0	1	0	0	0	
0	1	0	0	0	
0	0	1	0	0	
1	0	0	0	0	
0	0	1	0	0	
0	0	1	0	0	
0	0	1	0	0	
0	0	0	0	0	
0	0	0	0	0	
0	1	0	0	0	
0	1	0	0	0	
0	0	0	0	0	
0	0	1	0	0	
0	0	1	0	0	
0	0	0	0	0	
0	0	0	0	0	
0	0	0	0	0	
0	0	0	0	1	
0	0	0	0	0	
0	1	0	0	0	
0	0	0	0	0	
0	0	1	0	0	
1	0	0	0	0	
